95 2000
2 3 5 6 10 12 13 17 18 21 22 28 29 30 32 35 39 41 42 43 44 48 50 53 56 58 61 62 68 70 74 76 77 80 82 84 86 87 91
2 4 9 11 17 19 23 24 30 31 32 33 36 39 41 45 52 55 56 57 61 62 65 72 73 74 77 78 79 81 83 85 86 87 94
0 1 3 4 9 11 15 19 20 21 29 30 34 35 38 39 40 41 49 50 52 53 55 57 58 62 63 64 68 70 73 75 76 81 84 89 90 92
0 2 4 8 12 13 14 15 16 19 21 24 27 28 30 33 34 35 36 40 42 45 46 48 49 50 51 55 59 62 64 65 69 71 74 76 77 78 80 81 84 85 86 88 89 93 94
1 2 3 5 7 9 12 14 17 18 21 22 25 26 27 28 31 32 35 36 37 38 39 49 50 52 53 56 60 61 63 64 65 66 69 71 75 76 78 82 83 84 85 86 87 90 91 93 94
0 4 8 11 12 14 16 17 19 21 25 26 27 33 34 36 37 38 40 43 45 48 50 51 52 55 58 62 64 66 67 68 70 72 75 83 85 87 88 89 90 93 94
0 12 19 21 22 23 25 26 27 30 32 34 35 38 41 42 44 45 46 47 48 51 53 57 58 59 61 62 63 64 68 70 72 80 83 85 87 88 89 91 93
4 9 10 11 13 17 19 20 21 23 25 28 30 33 34 37 38 41 42 43 46 49 50 54 58 59 61 62 64 67 75 78 79 80 81 82 84 88 90 91 92 93 94
3 5 10 15 17 20 24 26 27 31 34 36 37 40 41 43 45 47 49 52 56 57 60 61 62 66 68 79 84 86 87 90 93
1 2 4 7 11 17 24 25 27 28 31 32 33 34 36 39 42 44 48 49 50 51 54 60 62 63 65 67 68 69 70 71 73 78 79 83 84 86 89 91 92
0 7 8 12 14 15 16 23 26 28 32 33 37 40 41 42 44 49 50 53 55 59 64 69 70 71 72 73 74 76 77 78 79 80 82 89 90 91 93
1 2 5 7 9 12 18 20 21 22 23 25 26 27 33 34 41 42 43 46 47 48 49 50 51 53 54 56 58 64 65 68 70 71 73 74 76 79 80 81 82 92
0 3 4 5 6 10 11 13 17 23 24 25 26 27 29 31 34 35 36 39 42 43 46 47 49 50 51 53 55 59 60 62 63 67 69 70 74 77 84 85 87 88 89 91
0 3 7 12 15 19 20 21 23 27 28 29 32 33 34 35 40 43 47 54 61 62 63 64 68 69 70 71 74 75 76 77 78 79 82 85 86 91 92
3 4 5 10 16 17 22 24 25 27 29 30 32 33 34 36 37 39 41 42 43 46 48 50 53 55 63 64 65 71 72 73 76 78 80 81 82 83 84 86 88 91 92
2 3 8 10 13 16 18 20 22 26 29 36 37 38 40 41 42 43 48 49 53 56 59 61 62 63 66 67 68 69 70 75 78 81 83 85 86 87 90 91 92 94
3 5 10 14 15 17 18 23 25 26 28 29 30 31 35 36 38 39 41 44 48 49 50 52 54 55 62 63 65 68 69 74 75 78 81 83 85 90 94
0 1 4 5 7 8 9 12 14 16 18 20 21 24 25 28 29 30 31 32 39 40 43 44 49 50 54 56 58 59 60 62 63 64 66 67 69 72 73 76 82 83 87 90 93 94
0 4 11 15 16 17 19 20 21 24 25 26 27 28 29 32 33 34 39 42 43 44 52 53 54 59 60 61 62 63 68 71 72 75 78 83 87 89 93
1 2 3 5 6 7 13 18 20 22 23 25 27 28 29 30 38 42 50 51 52 54 56 57 60 63 66 67 68 69 72 73 74 76 81 86 88
2 7 8 11 13 15 17 18 19 25 28 29 31 32 33 36 43 45 46 48 51 52 54 56 58 64 66 67 74 75 76 78 84 85 86 87 91 93 94
0 2 3 4 5 6 7 11 13 17 18 23 24 26 29 30 34 37 41 42 43 44 46 49 50 52 53 55 56 57 59 67 73 74 76 78 81 82 87 89 91 94
0 4 6 11 14 15 19 23 27 30 35 38 40 43 44 45 46 47 53 54 55 56 59 61 63 64 66 67 71 72 74 75 76 78 79 80 81 84 88 89 90 93
1 6 7 10 11 12 13 16 19 21 22 25 26 27 28 29 31 32 33 36 39 40 42 43 44 45 47 49 51 53 54 56 58 60 61 65 66 68 69 70 71 72 74 77 78 80 82 85 86 87 93
1 3 8 9 12 14 17 18 21 33 34 36 37 39 42 44 45 46 47 48 51 52 53 54 55 58 60 63 67 71 72 74 76 80 81 82 85 86 90 91 93
4 5 6 7 9 11 12 14 16 17 18 19 20 23 30 31 35 36 38 42 44 45 52 57 59 60 62 65 70 72 74 75 81 82 84 86 87 88 90 92 93
4 5 6 8 10 11 12 15 16 18 21 23 29 30 32 33 34 35 39 43 44 45 46 47 51 54 57 60 61 62 63 64 65 66 67 69 70 71 72 73 75 79 81 82 83 88 90 92 94
3 4 5 6 8 9 11 12 13 14 18 19 22 23 28 29 32 33 34 38 39 42 43 44 45 46 48 49 50 52 53 55 56 58 60 61 62 65 66 69 70 75 77 78 79 80 81 86 88 90 92
0 3 4 7 9 10 13 16 17 18 19 20 23 27 30 35 37 39 41 42 43 44 48 50 51 54 55 56 58 60 61 62 64 67 71 73 75 77 78 79 84 85 86 93 94
0 2 12 13 14 15 16 17 18 19 20 21 23 26 27 30 31 35 37 38 41 43 50 53 54 55 57 59 63 64 66 67 73 75 77 80 84 86 88 89 90 91 93
0 1 2 3 6 7 14 16 17 19 21 22 25 26 28 29 35 40 41 44 46 54 55 59 60 68 70 71 74 79 80 81 82 85 87 88 91 92 93 94
1 4 8 9 12 16 17 20 23 25 29 36 37 39 50 51 52 53 55 59 63 66 68 69 73 75 80 82 84 85 87 90 92 94
0 1 4 6 9 10 13 14 17 18 20 23 26 27 37 39 43 46 51 52 53 54 57 60 61 62 65 69 70 72 75 78 79 82 85 86 88 92 93 94
1 3 5 7 9 10 11 13 14 18 20 23 24 26 27 36 39 41 45 46 47 48 49 52 53 58 59 61 62 65 67 68 70 71 72 73 75 76 78 81 84 86 90 91 92 93 94
2 3 5 6 7 8 9 11 12 13 14 18 21 24 26 27 35 36 40 41 43 45 46 49 51 53 55 59 62 63 64 69 71 72 73 75 78 80 81 82 85 86 87 89 91 93 94
0 2 3 4 6 12 13 16 22 25 26 28 29 30 34 36 39 40 43 48 50 56 57 60 63 79 80 81 85 86 88 90 91 92 93
1 3 4 5 8 9 12 14 15 16 20 23 24 25 31 33 34 35 37 38 41 43 45 48 50 51 54 55 56 57 59 60 61 65 66 67 69 70 71 73 75 77 79 82 84 85 86 88 92 93 94
4 5 7 8 10 14 15 21 24 28 29 31 32 36 41 42 44 45 46 47 48 50 52 54 55 56 58 61 63 64 72 73 74 76 77 80 81 82 89 90 92 93
2 4 5 6 7 15 16 19 22 25 27 29 36 44 46 49 51 53 54 57 58 60 61 62 63 69 70 74 79 80 84 87 89 90 92
0 1 2 4 9 12 14 16 17 18 23 24 26 27 28 31 32 33 35 41 42 43 44 45 47 49 50 51 56 58 61 62 63 65 66 67 68 69 72 87 88 90 92 93
2 3 5 8 10 13 15 17 22 23 30 34 35 43 50 51 52 54 55 58 60 61 62 64 66 67 69 70 74 76 77 78 79 80 83 92 94
0 1 2 6 7 8 10 11 14 15 16 21 28 29 30 33 34 36 37 39 43 44 45 47 50 53 54 60 61 62 63 65 69 72 77 78 81 84 85 88 89 90
0 3 6 7 9 10 11 12 14 15 18 19 21 23 24 25 27 28 37 39 44 45 46 48 53 55 59 60 64 65 66 69 80 82 84 86 89 92 93 94
0 5 7 8 11 12 13 14 15 17 18 20 21 22 23 26 27 28 29 32 34 35 36 39 40 41 45 46 47 50 52 53 54 59 61 63 64 68 69 70 75 78 79 82 90 91 92 94
0 6 9 10 16 17 18 21 22 23 24 25 26 27 28 30 37 38 39 41 42 45 47 49 52 53 55 58 61 62 66 69 73 77 78 79 80 82 85 86 87 88 90
1 3 5 6 8 20 22 23 24 25 26 27 33 34 36 37 39 41 42 43 44 47 49 51 53 55 56 58 59 62 65 67 69 70 74 76 79 80 83 85 86 89 94
3 6 7 11 12 14 20 21 22 24 26 27 30 32 33 34 37 38 42 43 47 48 50 54 59 61 63 66 68 71 72 76 77 79 80 81 83 84 86 87 90
6 8 11 12 13 22 23 24 26 33 37 39 41 43 44 45 46 48 49 51 53 54 56 57 59 61 62 64 65 66 67 68 74 75 76 78 80 81 83 84 85 88 90
0 3 5 6 9 11 14 15 16 20 24 27 28 33 35 36 37 42 46 47 49 51 52 56 58 62 65 70 73 76 81 82 84 92 93 94
2 3 4 7 8 9 10 11 12 15 16 17 21 23 27 33 34 38 39 44 45 47 48 51 52 53 54 55 59 61 68 70 76 78 79 82 83 84 85 86 90 92 93 94
0 2 3 4 5 7 9 10 11 12 14 16 17 19 21 27 28 29 31 35 36 37 39 40 41 43 46 51 53 58 59 62 64 65 67 68 69 72 75 77 79 80 82 84 86 88 89 90 91 92 93 94
3 5 6 9 11 12 19 20 23 24 26 28 31 32 34 36 38 39 40 45 47 48 49 50 52 53 54 59 61 62 63 65 67 68 70 77 80 88 91 92 93
1 2 4 5 8 16 18 19 20 21 24 25 27 31 32 33 37 40 43 44 48 49 51 53 54 55 57 59 60 61 66 70 76 78 80 84 86 87 90 91 92
0 2 4 6 10 11 12 14 15 18 21 22 23 24 27 29 31 32 33 34 38 41 42 43 44 45 47 49 50 51 52 54 57 58 61 62 64 69 71 73 77 78 79 81 82 84 87 88 90 93 94
7 9 11 13 16 17 18 19 20 22 23 24 26 28 29 30 32 36 37 38 40 41 43 46 47 49 51 52 53 55 62 65 72 73 75 77 78 80 81 84 85 90 91
1 2 3 5 10 12 14 16 21 22 24 27 28 29 30 31 34 36 37 40 42 44 45 49 52 54 56 58 59 60 62 64 71 72 76 79 83 84 87 92
0 1 4 8 11 15 17 19 20 21 22 23 27 28 35 36 37 39 45 47 48 55 59 66 68 69 73 74 76 77 81 82 83 85 88 94
1 2 6 8 19 21 25 26 29 32 35 36 38 47 52 53 58 61 66 67 68 69 71 72 73 74 75 77 78 79 82 84 88 89 90 91 92 93
0 2 5 6 7 11 17 20 23 24 27 28 33 37 38 39 40 44 45 48 50 53 55 57 62 63 66 68 69 79 81 82 83 85 88 91
3 6 7 10 12 15 17 18 21 22 25 29 30 31 33 34 36 42 43 45 46 47 49 50 51 52 55 56 62 65 66 67 68 69 74 77 78 79 80 82 83 84 87 88 91
4 8 9 12 17 18 19 23 24 25 26 27 28 30 32 35 36 38 40 41 42 52 55 63 68 69 72 74 75 78 79 81 82 83 84 85 88 89 90
0 1 4 6 7 8 13 15 18 22 23 26 27 28 32 33 36 37 38 39 40 41 43 44 46 47 49 51 52 53 57 63 66 67 68 71 72 76 77 80 81 82 84 85 88 89 90 91 92
0 1 2 3 5 6 7 8 9 12 13 15 16 17 18 25 26 27 28 32 33 34 38 39 40 41 44 45 47 48 50 51 53 54 55 58 59 71 72 81 82 83 84 85 86 87 93
2 4 6 9 12 13 14 15 16 17 18 19 22 24 26 29 31 34 35 37 38 39 41 43 46 51 58 60 61 67 68 74 76 82 83 84 85 87 90 94
2 3 4 5 6 7 10 11 13 14 17 20 22 26 28 29 34 37 40 42 43 47 50 53 55 67 68 69 73 76 80 83 86 87 88 91 92 93 94
1 3 4 9 11 14 16 23 25 26 27 32 33 36 39 41 42 45 47 48 50 51 54 59 67 69 71 76 77 80 82 89 90 92 93
4 5 8 15 17 19 20 22 23 26 27 29 31 36 39 40 42 44 46 47 52 56 57 58 59 61 67 75 76 77 79 80 84 85 86 87 89 91 92 94
5 7 9 12 15 17 19 20 21 22 24 26 28 29 33 36 39 40 45 47 50 51 57 59 61 63 64 65 66 69 72 77 84 85 86 88 90 91 92 93
0 2 5 6 8 9 11 13 15 16 18 19 23 30 31 33 39 43 46 47 49 50 51 56 57 58 59 60 61 63 64 69 71 73 75 76 77 79 82 84 85 86 87 89 90 91 92
3 4 9 10 12 13 15 16 17 19 23 26 27 31 32 34 36 38 39 40 41 42 43 44 45 50 53 56 57 58 59 60 64 65 67 68 71 74 75 76 77 78 80 81 82 87 91
0 2 5 6 9 10 11 12 13 15 23 25 26 27 30 32 33 36 38 40 43 45 48 49 51 52 72 73 74 75 78 80 88 90 91 92
3 4 9 10 11 13 14 18 22 23 24 26 28 30 33 34 36 46 53 55 57 61 62 65 68 69 72 73 77 80 82 84 85 86 87 89 90 93 94
1 5 6 10 14 17 18 19 22 23 24 25 26 32 33 34 37 39 41 46 50 54 55 57 60 61 62 67 70 71 75 79 84 88 89 90 92 93 94
1 2 9 10 11 14 17 19 21 26 28 29 31 33 34 36 37 44 48 53 54 56 57 64 68 70 71 75 76 77 78 79 80 82 84 86 87 89 90
0 1 3 10 11 12 13 16 19 20 21 22 23 24 25 30 37 38 40 45 47 56 57 59 60 63 69 70 77 78 79 82 83 84 87 89 90 91 93 94
2 4 5 7 13 15 16 18 20 22 25 26 27 28 29 31 32 33 34 36 43 47 50 54 57 60 66 68 69 70 72 73 78 83 89 90 91 93 94
0 2 3 4 10 11 13 14 17 19 20 21 22 24 33 37 40 45 46 47 48 49 52 55 56 61 63 64 65 66 68 69 73 77 82 85 87 90 91 93
0 1 3 10 12 13 23 27 28 29 36 37 40 41 44 46 50 51 53 54 56 57 59 61 65 66 67 68 69 71 73 74 76 79 80 81 82 83 87 90 91 93 94
1 3 4 7 9 10 13 14 15 16 18 20 21 22 23 27 28 32 33 34 40 41 43 44 47 49 52 53 54 57 59 60 69 70 73 74 75 80 81 82 84 88 92 93
1 7 8 9 10 11 13 22 26 27 28 30 32 35 36 38 40 43 44 45 46 49 50 53 55 57 58 59 60 66 68 72 73 74 77 80 83 85 86 87 88 89 90 92 93
0 3 6 7 10 11 14 22 23 24 27 29 30 31 34 35 37 38 40 42 44 45 46 47 50 51 52 54 59 61 64 65 66 69 70 71 73 77 78 79 81 82 86 88 91 92
1 2 3 7 11 14 15 16 19 21 22 24 25 26 27 30 33 34 35 37 41 46 47 48 53 54 56 58 60 61 62 69 77 78 80 83 84 85 86 87 92
0 4 7 10 11 13 14 17 21 23 24 25 26 30 31 32 34 36 37 42 43 44 48 49 50 53 56 57 58 59 60 61 62 63 65 68 69 71 73 74 76 77 78 80 86 92 94
1 4 5 6 9 14 15 16 17 18 26 40 45 46 47 49 55 56 58 59 60 62 63 64 74 75 77 79 81 87 89 91 92 93
0 2 3 4 7 8 9 12 14 20 22 25 28 29 31 33 36 38 41 42 46 47 48 49 50 52 53 54 55 57 59 60 61 62 63 66 67 68 71 72 73 74 78 81 86 87 91 92
1 3 4 5 6 12 13 15 16 20 23 24 28 30 31 32 34 35 36 41 44 45 47 49 54 56 58 60 61 62 63 66 67 68 71 76 79 81 86 89 90 91 93 94
0 1 3 4 8 9 13 14 15 19 20 23 24 25 27 28 29 32 33 34 35 36 42 44 45 46 49 50 52 62 64 66 67 68 71 73 79 80 81 82 84 85 87 92 94
0 1 4 5 6 8 12 15 17 18 20 21 23 25 30 31 34 38 39 44 46 52 53 55 59 62 63 64 66 68 69 71 73 74 76 77 79 81 83 84 86 90 91 92 93
3 5 6 7 12 14 19 22 25 26 27 29 30 32 35 36 39 41 44 47 50 51 53 56 57 58 59 60 61 64 67 70 72 78 79 80 91 94
2 3 5 6 9 10 12 18 21 22 29 34 37 38 41 42 45 50 57 60 61 65 66 68 71 72 73 74 75 79 83 85 92 94
2 4 5 7 8 10 15 16 17 22 24 25 26 27 29 31 33 35 37 38 39 41 43 44 46 47 49 50 52 53 54 57 60 61 63 65 67 68 70 71 72 73 74 75 76 77 79 85 87 91 92
0 4 6 7 9 10 12 13 14 15 20 21 24 29 30 33 34 35 43 50 51 52 54 57 58 59 61 64 66 67 68 69 70 74 75 76 77 80 83 84 85 87 88 90
2 7 9 11 13 14 15 25 26 27 30 31 32 33 35 36 37 38 39 40 42 43 48 49 50 51 52 55 57 61 64 65 66 67 68 70 72 78 79 80 81 82 83 84 86 87 89 90 93
3 4 5 6 7 8 10 17 18 20 22 23 24 25 28 29 30 32 33 34 35 36 37 39 42 48 49 50 51 53 57 62 64 65 67 71 72 74 75 76 77 78 79 83 85 87 92 94
1 3 4 5 7 15 16 17 20 21 26 28 30 31 32 33 34 36 40 42 43 45 48 49 50 53 56 63 64 66 71 72 74 75 77 82 85 86 88 89 93
